
n_res = 4;
rcap = [32, 26, 162, 156];
rtype = [1, 1, 2, 2];
n_tasks = 100;
modes =  [{1, 2, 3}, {4, 5, 6}, {7, 8, 9}, {10, 11, 12}, {13, 14, 15}, {16, 17, 18}, {19, 20, 21}, {22, 23, 24}, {25, 26, 27}, {28, 29, 30}, {31, 32, 33}, {34, 35, 36}, {37, 38, 39}, {40, 41, 42}, {43, 44, 45}, {46, 47, 48}, {49, 50, 51}, {52, 53, 54}, {55, 56, 57}, {58, 59, 60}, {61, 62, 63}, {64, 65, 66}, {67, 68, 69}, {70, 71, 72}, {73, 74, 75}, {76, 77, 78}, {79, 80, 81}, {82, 83, 84}, {85, 86, 87}, {88, 89, 90}, {91, 92, 93}, {94, 95, 96}, {97, 98, 99}, {100, 101, 102}, {103, 104, 105}, {106, 107, 108}, {109, 110, 111}, {112, 113, 114}, {115, 116, 117}, {118, 119, 120}, {121, 122, 123}, {124, 125, 126}, {127, 128, 129}, {130, 131, 132}, {133, 134, 135}, {136, 137, 138}, {139, 140, 141}, {142, 143, 144}, {145, 146, 147}, {148, 149, 150}, {151, 152, 153}, {154, 155, 156}, {157, 158, 159}, {160, 161, 162}, {163, 164, 165}, {166, 167, 168}, {169, 170, 171}, {172, 173, 174}, {175, 176, 177}, {178, 179, 180}, {181, 182, 183}, {184, 185, 186}, {187, 188, 189}, {190, 191, 192}, {193, 194, 195}, {196, 197, 198}, {199, 200, 201}, {202, 203, 204}, {205, 206, 207}, {208, 209, 210}, {211, 212, 213}, {214, 215, 216}, {217, 218, 219}, {220, 221, 222}, {223, 224, 225}, {226, 227, 228}, {229, 230, 231}, {232, 233, 234}, {235, 236, 237}, {238, 239, 240}, {241, 242, 243}, {244, 245, 246}, {247, 248, 249}, {250, 251, 252}, {253, 254, 255}, {256, 257, 258}, {259, 260, 261}, {262, 263, 264}, {265, 266, 267}, {268, 269, 270}, {271, 272, 273}, {274, 275, 276}, {277, 278, 279}, {280, 281, 282}, {283, 284, 285}, {286, 287, 288}, {289, 290, 291}, {292, 293, 294}, {295, 296, 297}, {298, 299, 300}];
succ =  [{46, 34, 29, 28, 27, 21, 20, 10}, {41, 35, 25, 22, 19, 10}, {39, 36, 34, 28, 17, 16, 12}, {48, 36, 34, 29, 28, 27, 17, 16}, {56, 48, 46, 44, 40, 36, 31, 30, 27, 26, 24, 21}, {56, 53, 49, 48, 47, 46, 45, 44, 43, 41, 40, 39, 35, 34, 33, 28, 27, 26}, {49, 46, 45, 44, 40, 35, 34, 28, 26, 24, 20}, {67, 56, 49, 48, 47, 46, 45, 44, 39, 38, 37, 36, 34, 30, 27, 24}, {56, 53, 46, 41, 39, 32, 17}, {56, 53, 48, 44, 36, 17}, {73, 67, 53, 52, 49, 48, 47, 46, 44, 41, 39, 37, 36, 34, 24}, {48, 46, 44, 43, 42, 40, 37, 35, 30, 21}, {67, 56, 53, 49, 48, 47, 46, 43, 41, 34, 30, 26}, {56, 52, 47, 45, 44, 41, 37, 27, 22}, {53, 48, 44, 43, 40, 34, 30, 27, 26}, {73, 58, 56, 55, 53, 52, 51, 47, 46, 45, 44, 42, 41, 40, 38, 33}, {73, 58, 55, 49, 47, 45, 40, 38, 37, 30, 24}, {67, 53, 49, 48, 41, 39, 34, 33, 28, 26}, {48, 47, 44, 43, 39, 36, 30, 27}, {73, 56, 55, 54, 53, 52, 51, 50, 48, 47, 43, 39, 33}, {84, 62, 60, 58, 55, 53, 52, 51, 50, 49, 47, 41, 33}, {79, 73, 67, 58, 54, 51, 43, 42, 38, 34}, {73, 67, 64, 55, 54, 52, 50, 44, 42, 33}, {62, 54, 51, 50, 43, 42, 33}, {78, 73, 69, 68, 65, 63, 61, 60, 59, 56, 53, 50, 49, 48, 46}, {79, 73, 60, 59, 58, 57, 51, 38, 37}, {99, 79, 78, 77, 73, 71, 65, 64, 62, 59, 57, 55, 50, 42}, {100, 97, 70, 65, 64, 63, 61, 59, 58, 57, 55, 54, 42}, {77, 71, 68, 64, 63, 57, 54, 52, 37}, {100, 83, 82, 79, 77, 71, 66, 65, 64, 63, 61, 54, 52}, {100, 99, 98, 78, 77, 73, 70, 68, 64, 59, 57, 45}, {84, 71, 68, 66, 63, 62, 59, 57, 54, 52, 47}, {100, 97, 81, 79, 77, 71, 70, 68, 66, 65, 63, 61, 59, 57}, {100, 84, 77, 72, 69, 68, 64, 63, 62, 61, 59, 57, 55}, {99, 98, 84, 82, 78, 77, 73, 71, 64, 59, 55, 52}, {95, 78, 76, 71, 69, 68, 58, 57, 50}, {100, 98, 97, 94, 93, 84, 82, 78, 75, 70, 69, 66, 61}, {100, 99, 98, 75, 72, 71, 68, 66, 50}, {99, 98, 96, 95, 84, 83, 80, 77, 75, 69, 68, 62}, {98, 93, 84, 82, 79, 76, 70, 68, 67, 63, 54}, {98, 97, 95, 94, 93, 83, 82, 81, 80, 77, 75, 74, 70, 61}, {98, 92, 84, 83, 82, 72, 69, 68, 66, 60}, {100, 95, 94, 84, 81, 80, 78, 76, 74, 57}, {99, 96, 95, 91, 82, 81, 80, 79, 75, 74, 62}, {97, 96, 84, 83, 82, 75, 74, 71, 69, 66}, {99, 97, 96, 93, 92, 85, 84, 83, 82, 81, 80, 79, 75, 74, 70}, {99, 98, 97, 93, 87, 85, 83, 82, 80, 78, 74, 69}, {98, 94, 82, 81, 80, 77, 75, 64}, {99, 98, 97, 96, 91, 89, 86, 79, 76, 71}, {97, 94, 93, 92, 85, 83, 82, 81, 80, 70}, {100, 98, 94, 90, 82, 81, 64}, {97, 94, 85, 80, 74, 70, 69}, {98, 94, 91, 74, 72, 66}, {95, 94, 88, 86, 85, 80, 78, 75}, {96, 95, 93, 92, 85, 83, 75, 74}, {97, 93, 92, 89, 87, 85, 81, 74}, {93, 91, 89, 85, 83, 82, 75}, {99, 98, 96, 91, 90, 87, 85, 77}, {95, 91, 88, 87, 85, 80, 74}, {96, 94, 93, 91, 90, 87, 86, 85}, {99, 96, 92, 87, 86, 76}, {97, 94, 93, 92, 86, 76}, {92, 90, 89, 88, 87, 86, 85}, {95, 92, 91, 89, 76}, {98, 92, 91, 88, 85}, {95, 86, 85, 80}, {95, 86, 85, 80}, {89, 87, 74}, {91, 90, 81}, {91, 89, 87}, {94, 93, 85}, {93, 89, 87}, {93, 87, 85}, {90, 86}, {90, 87}, {88, 85}, {92, 86}, {96, 92}, {90, 87}, {89}, {88}, {86}, {88}, {87}, {}, {}, {}, {}, {}, {}, {}, {}, {}, {}, {}, {}, {}, {}, {}, {}];
n_opt = 300;
dur = [3, 8, 10, 2, 10, 10, 1, 4, 10, 7, 10, 10, 6, 6, 7, 5, 6, 8, 2, 4, 5, 2, 4, 6, 1, 2, 6, 5, 5, 9, 1, 3, 4, 1, 4, 9, 2, 3, 10, 2, 4, 8, 1, 4, 6, 3, 5, 9, 2, 5, 7, 5, 7, 10, 1, 2, 2, 8, 8, 9, 5, 8, 9, 1, 4, 5, 7, 8, 8, 3, 4, 8, 2, 8, 10, 6, 7, 8, 1, 5, 7, 1, 2, 8, 5, 5, 8, 2, 7, 8, 6, 6, 8, 2, 7, 9, 1, 9, 10, 4, 6, 9, 1, 5, 7, 1, 6, 9, 9, 10, 10, 1, 6, 6, 4, 4, 7, 2, 3, 6, 2, 3, 4, 3, 4, 6, 2, 5, 10, 3, 3, 6, 4, 5, 6, 8, 9, 10, 4, 7, 10, 1, 1, 9, 3, 6, 8, 1, 3, 8, 3, 3, 6, 2, 4, 9, 7, 9, 10, 1, 6, 10, 5, 8, 10, 2, 6, 8, 9, 9, 10, 2, 4, 10, 1, 2, 3, 7, 7, 8, 8, 9, 10, 2, 3, 4, 1, 2, 5, 2, 2, 5, 3, 6, 10, 6, 7, 9, 6, 7, 9, 6, 7, 8, 4, 8, 9, 2, 2, 5, 1, 2, 4, 3, 4, 5, 1, 4, 9, 1, 2, 2, 2, 7, 8, 3, 7, 8, 4, 5, 8, 1, 1, 2, 1, 5, 8, 3, 4, 5, 1, 4, 8, 2, 3, 3, 3, 4, 8, 2, 4, 5, 1, 7, 9, 2, 7, 10, 7, 8, 8, 1, 6, 10, 2, 3, 8, 6, 6, 8, 1, 2, 8, 3, 4, 7, 3, 4, 8, 7, 8, 8, 4, 5, 7, 3, 8, 9, 3, 7, 8, 4, 7, 10, 2, 3, 9, 1, 3, 3];
rreq = [|5, 3, 0, 4, 0, 4, 0, 0, 1, 5, 3, 2, 0, 0, 2, 2, 0, 0, 3, 0, 2, 0, 0, 1, 0, 1, 1, 0, 1, 1, 3, 3, 2, 0, 0, 4, 0, 0, 0, 0, 0, 0, 0, 0, 2, 0, 2, 2, 0, 2, 2, 3, 0, 1, 3, 3, 0, 0, 2, 2, 0, 0, 3, 0, 0, 2, 0, 3, 3, 0, 3, 0, 3, 0, 0, 0, 0, 1, 4, 2, 2, 0, 4, 2, 3, 0, 0, 4, 0, 2, 0, 4, 0, 5, 5, 0, 4, 0, 0, 0, 0, 1, 3, 3, 3, 0, 3, 0, 3, 1, 0, 0, 4, 0, 0, 3, 0, 5, 0, 0, 4, 0, 0, 0, 0, 0, 3, 0, 1, 0, 2, 2, 0, 2, 2, 2, 1, 0, 3, 3, 1, 4, 0, 4, 2, 2, 0, 0, 0, 0, 3, 3, 3, 3, 3, 1, 4, 4, 0, 0, 1, 1, 3, 0, 0, 0, 1, 0, 0, 3, 0, 4, 0, 4, 0, 5, 0, 4, 3, 3, 0, 0, 0, 0, 2, 1, 5, 3, 0, 1, 0, 0, 0, 4, 0, 1, 0, 1, 0, 0, 4, 5, 2, 2, 2, 1, 0, 0, 2, 2, 3, 0, 1, 0, 2, 1, 5, 0, 1, 0, 0, 2, 5, 3, 0, 4, 0, 0, 3, 2, 2, 0, 3, 0, 0, 0, 3, 0, 2, 0, 5, 4, 0, 2, 0, 0, 3, 3, 2, 0, 0, 2, 4, 4, 3, 0, 0, 1, 2, 2, 2, 0, 0, 0, 0, 2, 0, 0, 1, 0, 0, 3, 1, 4, 0, 0, 0, 0, 0, 4, 0, 0, 0, 0, 1, 2, 0, 0, 0, 0, 3, 0, 0, 0, 4, 0, 3, 0, 4, 3
 |0, 0, 2, 0, 3, 0, 3, 3, 0, 0, 0, 0, 5, 5, 0, 0, 3, 2, 0, 3, 0, 3, 2, 0, 1, 0, 0, 4, 0, 0, 0, 0, 0, 5, 5, 0, 4, 2, 1, 4, 4, 4, 1, 1, 0, 4, 0, 0, 5, 0, 0, 0, 3, 0, 0, 0, 2, 3, 0, 0, 3, 1, 0, 5, 4, 0, 2, 0, 0, 5, 0, 3, 0, 4, 4, 3, 3, 0, 0, 0, 0, 4, 0, 0, 0, 4, 3, 0, 1, 0, 4, 0, 1, 0, 0, 4, 0, 2, 2, 3, 1, 0, 0, 0, 0, 2, 0, 2, 0, 0, 2, 5, 0, 2, 3, 0, 1, 0, 1, 1, 0, 4, 4, 2, 1, 1, 0, 1, 0, 3, 0, 0, 4, 0, 0, 0, 0, 4, 0, 0, 0, 0, 3, 0, 0, 0, 1, 3, 2, 1, 0, 0, 0, 0, 0, 0, 0, 0, 4, 3, 0, 0, 0, 5, 5, 3, 0, 2, 5, 0, 3, 0, 2, 0, 2, 0, 2, 0, 0, 0, 4, 2, 2, 5, 0, 0, 0, 0, 4, 0, 3, 2, 4, 0, 4, 0, 3, 0, 4, 4, 0, 0, 0, 0, 0, 0, 2, 2, 0, 0, 0, 4, 0, 5, 0, 0, 0, 2, 0, 2, 2, 0, 0, 0, 1, 0, 3, 3, 0, 0, 0, 2, 0, 2, 3, 3, 0, 2, 0, 2, 0, 0, 2, 0, 3, 2, 0, 0, 0, 4, 4, 0, 0, 0, 0, 1, 1, 0, 0, 0, 0, 5, 3, 3, 3, 0, 1, 5, 0, 2, 3, 0, 0, 0, 2, 2, 2, 2, 2, 0, 4, 4, 1, 1, 0, 0, 3, 3, 3, 3, 0, 3, 3, 2, 0, 2, 0, 3, 0, 0
 |0, 0, 0, 0, 2, 0, 10, 0, 5, 4, 2, 0, 9, 0, 7, 0, 3, 0, 0, 0, 3, 3, 1, 1, 9, 0, 0, 3, 0, 1, 0, 0, 0, 0, 0, 0, 0, 7, 0, 10, 0, 0, 7, 0, 0, 9, 5, 0, 0, 4, 0, 0, 3, 3, 10, 7, 6, 8, 6, 0, 0, 0, 0, 10, 7, 6, 0, 0, 7, 0, 7, 0, 0, 0, 2, 8, 7, 0, 0, 6, 4, 9, 0, 5, 3, 3, 1, 0, 0, 4, 8, 6, 4, 9, 0, 0, 8, 4, 3, 0, 0, 0, 0, 2, 1, 7, 0, 4, 2, 1, 0, 3, 2, 0, 0, 6, 0, 8, 6, 3, 0, 0, 0, 6, 4, 0, 0, 0, 0, 0, 6, 0, 2, 0, 1, 7, 6, 3, 9, 0, 7, 7, 7, 6, 7, 6, 4, 0, 0, 2, 10, 0, 0, 3, 0, 1, 7, 0, 5, 2, 0, 0, 8, 0, 0, 3, 2, 0, 2, 2, 0, 8, 0, 7, 0, 2, 2, 0, 7, 4, 0, 0, 0, 0, 5, 2, 0, 0, 0, 5, 3, 3, 7, 0, 0, 0, 5, 0, 0, 0, 2, 0, 0, 7, 3, 0, 1, 0, 0, 0, 1, 0, 1, 0, 4, 4, 7, 0, 2, 6, 3, 1, 3, 3, 0, 6, 6, 5, 9, 0, 0, 0, 0, 0, 0, 0, 0, 5, 0, 0, 7, 0, 5, 0, 4, 0, 2, 1, 0, 0, 0, 0, 7, 0, 0, 0, 0, 0, 7, 5, 0, 0, 7, 0, 9, 7, 3, 3, 3, 2, 0, 5, 4, 0, 4, 0, 0, 0, 0, 0, 4, 0, 0, 0, 0, 4, 0, 2, 5, 4, 4, 8, 5, 4, 0, 8, 0, 6, 0, 1
 |9, 8, 8, 8, 0, 5, 0, 4, 0, 0, 0, 3, 0, 2, 0, 9, 0, 5, 9, 4, 0, 0, 0, 0, 0, 2, 1, 0, 3, 0, 7, 6, 5, 6, 5, 6, 8, 0, 3, 0, 2, 1, 0, 7, 4, 0, 0, 7, 10, 0, 9, 9, 0, 0, 0, 0, 0, 0, 0, 3, 7, 6, 4, 0, 0, 0, 4, 3, 0, 5, 0, 2, 6, 4, 0, 0, 0, 1, 6, 0, 0, 0, 6, 0, 0, 0, 0, 3, 2, 0, 0, 0, 0, 0, 5, 2, 0, 0, 0, 7, 6, 4, 5, 0, 0, 0, 8, 0, 0, 0, 3, 0, 0, 4, 10, 0, 7, 0, 0, 0, 6, 5, 3, 0, 0, 1, 5, 3, 1, 6, 0, 5, 0, 3, 0, 0, 0, 0, 0, 3, 0, 0, 0, 0, 0, 0, 0, 8, 6, 0, 0, 7, 4, 0, 7, 0, 0, 5, 0, 0, 6, 5, 0, 2, 1, 0, 0, 9, 0, 0, 2, 0, 3, 0, 4, 0, 0, 8, 0, 0, 10, 6, 5, 10, 0, 0, 5, 4, 3, 0, 0, 0, 0, 5, 5, 5, 0, 2, 7, 6, 0, 6, 4, 0, 0, 7, 0, 3, 3, 2, 0, 4, 0, 9, 0, 0, 0, 1, 0, 0, 0, 0, 0, 0, 2, 0, 0, 0, 0, 6, 5, 8, 6, 3, 9, 8, 8, 0, 3, 1, 0, 6, 0, 8, 0, 7, 0, 0, 7, 10, 7, 3, 0, 7, 5, 3, 2, 1, 0, 0, 2, 3, 0, 2, 0, 0, 0, 0, 0, 0, 2, 0, 0, 4, 0, 4, 6, 5, 4, 5, 0, 4, 4, 3, 2, 0, 2, 0, 0, 0, 0, 0, 0, 0, 5, 0, 2, 0, 5, 0|];